\ This file has been generated by DOcplex
\ ENCODING=ISO-8859-1
\Problem name: <decpomdp.DecPOMDP object at 0x126da7100> problem

Maximize
 obj: V
Subject To
 c1: V + 2 a0_0 - 5.677852348993 a0_1 + 97.677852348993 a0_2 <= 0
 c2: V - 5.677852348993 a0_0 - 17.885906040268 a0_1 + 100 a0_2 <= 0
 c3: V + 97.677852348993 a0_0 + 100 a0_1 + 47.885906040268 a0_2 <= 0
 c4: a0_0 + a0_1 + a0_2 = 1

Bounds
       a0_0 <= 1
       a0_1 <= 1
       a0_2 <= 1
       V Free
End
